
w = 6;
h = 6;
grid_data = [|
	0, 0, 0, 0, 0, 0|
	0, 0, 1, 1, 0, 0|
	0, 1, 1, 1, 1, 0|
	0, 1, 1, 0, 1, 1|
	0, 0, 1, 1, 1, 1|
	0, 0, 0, 1, 1, 0
|];
n_h = 6;
h_clue = [|
	2, 2, 2, 4|
	3, 1, 4, 27|
	4, 1, 2, 5|	4, 4, 2, 15|
	5, 2, 4, 11|
	6, 3, 2, 13
|];
n_v = 6;
v_clue = [|
	1, 3, 4, 17|	1, 4, 2, 5|
	2, 2, 2, 13|	2, 5, 4, 24|
	3, 6, 2, 7|
	4, 4, 2, 9
|];
